HUN,8,6,489
5,24,0,21,1,23,2,26,3,28,4,28
0,21,1,29,5,21,2,26,3,30,4,29
4,23,2,25,1,29,5,22,3,25,0,28
1,23,2,24,3,26,4,26,0,26,5,30
2,28,1,22,4,27,5,30,3,23,0,22
0,23,3,30,2,24,4,26,1,21,5,25
1,29,0,23,4,21,3,21,2,27,5,21
0,28,5,22,2,29,1,26,4,23,3,27
